NAME: random-70-13880
TYPE: TSP
COMMENT: size=70 seed=13880
DIMENSION: 142
EDGE_WEIGHT_TYPE: EUC_2D
NODE_COORD_SECTION
+0 160 345
-0 160 345
+1 482 127
-1 876 606
+2 324 389
-2 219 977
+3 109 47
-3 486 896
+4 955 938
-4 513 791
+5 922 516
-5 342 802
+6 432 529
-6 548 468
+7 302 196
-7 515 267
+8 186 234
-8 48 955
+9 213 914
-9 35 190
+10 44 221
-10 430 648
+11 979 424
-11 391 567
+12 825 281
-12 94 30
+13 940 415
-13 898 983
+14 576 507
-14 907 160
+15 628 786
-15 718 204
+16 862 808
-16 742 467
+17 2 159
-17 237 123
+18 85 539
-18 456 758
+19 620 15
-19 857 290
+20 170 940
-20 180 795
+21 963 114
-21 354 524
+22 696 789
-22 748 843
+23 216 932
-23 772 6
+24 887 600
-24 954 765
+25 201 742
-25 538 315
+26 509 742
-26 121 34
+27 274 574
-27 700 538
+28 641 139
-28 16 751
+29 561 176
-29 600 490
+30 286 443
-30 193 790
+31 269 596
-31 794 537
+32 310 231
-32 743 850
+33 518 81
-33 275 973
+34 8 151
-34 430 688
+35 270 413
-35 247 928
+36 824 769
-36 904 40
+37 947 620
-37 680 260
+38 997 236
-38 663 342
+39 894 567
-39 84 418
+40 560 316
-40 699 413
+41 169 515
-41 7 483
+42 383 255
-42 340 796
+43 927 43
-43 778 910
+44 736 795
-44 350 967
+45 203 741
-45 844 963
+46 892 211
-46 976 895
+47 503 244
-47 693 606
+48 349 691
-48 323 415
+49 972 726
-49 761 198
+50 459 938
-50 293 671
+51 655 495
-51 107 460
+52 275 698
-52 52 958
+53 771 984
-53 505 29
+54 929 278
-54 815 545
+55 994 798
-55 390 992
+56 366 778
-56 371 778
+57 737 746
-57 714 409
+58 870 916
-58 650 716
+59 983 270
-59 686 199
+60 355 759
-60 17 468
+61 444 815
-61 931 636
+62 223 842
-62 544 676
+63 142 895
-63 670 814
+64 609 718
-64 977 297
+65 887 206
-65 56 702
+66 732 754
-66 224 92
+67 685 388
-67 855 303
+68 83 88
-68 591 886
+69 286 160
-69 639 348
+70 156 981
-70 206 751
PRECEDENCE_SECTION
+0 -0
+1 -1
+2 -2
+3 -3
+4 -4
+5 -5
+6 -6
+7 -7
+8 -8
+9 -9
+10 -10
+11 -11
+12 -12
+13 -13
+14 -14
+15 -15
+16 -16
+17 -17
+18 -18
+19 -19
+20 -20
+21 -21
+22 -22
+23 -23
+24 -24
+25 -25
+26 -26
+27 -27
+28 -28
+29 -29
+30 -30
+31 -31
+32 -32
+33 -33
+34 -34
+35 -35
+36 -36
+37 -37
+38 -38
+39 -39
+40 -40
+41 -41
+42 -42
+43 -43
+44 -44
+45 -45
+46 -46
+47 -47
+48 -48
+49 -49
+50 -50
+51 -51
+52 -52
+53 -53
+54 -54
+55 -55
+56 -56
+57 -57
+58 -58
+59 -59
+60 -60
+61 -61
+62 -62
+63 -63
+64 -64
+65 -65
+66 -66
+67 -67
+68 -68
+69 -69
+70 -70
EOF
